db/inputs/107382661314189310522849516824842920985.smt2
(set-logic QF_FP)
(declare-const x0 (_ FloatingPoint 8 24))
(declare-const x1 (_ FloatingPoint 8 24))
(declare-const x2 (_ FloatingPoint 8 24))
(declare-const x3 (_ FloatingPoint 8 24))
(declare-const x4 (_ FloatingPoint 8 24))
(declare-const x5 (_ FloatingPoint 8 24))
(declare-const x6 (_ FloatingPoint 8 24))
(declare-const x7 (_ FloatingPoint 8 24))
(declare-const x8 (_ FloatingPoint 8 24))
(declare-const x9 (_ FloatingPoint 8 24))
(declare-const x10 (_ FloatingPoint 8 24))
(declare-const x11 (_ FloatingPoint 8 24))
(declare-const x12 (_ FloatingPoint 8 24))
(declare-const x13 (_ FloatingPoint 8 24))
(declare-const x14 (_ FloatingPoint 8 24))
(declare-const x15 (_ FloatingPoint 8 24))
(declare-const x16 (_ FloatingPoint 8 24))
(declare-const x17 (_ FloatingPoint 8 24))
(declare-const x18 (_ FloatingPoint 8 24))
(assert (fp.lt (fp.neg x14) (fp.sub RNE x12 x4)))
(assert (fp.leq (fp.mul RNE x16 x8) (fp.sub RNE x3 x8)))
(assert (fp.gt (fp.neg x18) (fp.sub RNE x14 x11)))
(assert (fp.geq (fp.div RNE x18 x8) (fp.mul RNE x5 x17)))
(assert (fp.geq (fp.sub RNE x5 x14) (fp.mul RNE x12 x4)))
(check-sat)
