db/data/107382661314189310522849516824842920985.z3.out
sat
-------------------
279.273608401
